\ This file has been generated by DOcplex
\ ENCODING=ISO-8859-1
\Problem name: {self.PROBLEM.name} LEADER SOTA problem

Maximize
 obj: V
Subject To
 c1: V + 118.034861961873 a0_0 + 188.012753952525 a0_1 + 188.012753952525 a0_2
      <= 0
 c2: V + 188.012753952525 a0_0 + 157.012753952525 a0_1 + 242.012753952525 a0_2
      <= 0
 c3: V + 188.012753952525 a0_0 + 242.012753952525 a0_1 + 157.012753952525 a0_2
      <= 0
 c4: a0_0 + a0_1 + a0_2 = 1

Bounds
       a0_0 <= 1
       a0_1 <= 1
       a0_2 <= 1
       V Free
End
